5
4
2 3 4 5
3 4 5 6

50
3
10 20 30
60 100 120

101
10
85 26 48 21 22 95 43 45 55 52
79 32 47 18 26 85 33 40 45 

7
6
6 5 2 1 4 3
43 35 21 17 24 49

9
6
6 5 2 1 4 3
43 35 21 17 24 49

750
100
463 423 159 649 665 540 549 584 360 187 907 885 515 485 